130 6850
1 127 107 104 43 89 110 98 48 25 113 32 36 84 119 111 123 101 82 57 9 56 73 92 38 106 42 44 55 122 23 40 47 22 37 93 33 21 8 114 126 30 59 83 3 108 18 46 80 118 20 4 35 54 17 34 31 27 19 15 29 24 95 79 116 100 2 50 130 71 39 112 62 105 128 16 45 5 11 76 109 61 129 124 64 69 86 88 26 97 7 70 63 68 94 77 103 12 87 81 65 52 75 74 99 91 72 49 58 53 120 51 60 6 102 10 14 67 96 13 121 78 90 125 85 66 28 115 117 41 
